(set-logic QF_S)
(declare-fun var0 () String)
(assert (str.in.re var0 (re.++ (re.+ (re.union (str.to.re "000") (str.to.re "111"))) (re.++ (re.* (re.union (str.to.re "2") (str.to.re "33"))) (re.++ (re.union (re.+ (str.to.re "44")) (re.+ (str.to.re "5"))) (re.++ (re.+ (re.* (str.to.re "6"))) (re.++ (re.union (re.union (str.to.re "77") (str.to.re "8")) (re.union (str.to.re "99") (str.to.re "aaa"))) (re.++ (re.* (re.* (str.to.re "bb"))) (re.++ (re.union (re.+ (str.to.re "ccc")) (re.+ (str.to.re "d"))) (re.++ (re.+ (re.union (str.to.re "e") (str.to.re "f"))) (re.* (re.union (str.to.re "g") (str.to.re "hhh")))))))))))))
(check-sat)